c --- [ banner ] -------------------------------------------------------------
c 
c CaDiCaL Radically Simplified CDCL SAT Solver
c Copyright (c) 2016-2021 A. Biere, M. Fleury, N. Froleyks
c 
c Version 1.5.2 9c38a080b32c28d805e8e6ca21849856b0cda605
c g++ (Ubuntu 7.5.0-3ubuntu1~18.04) 7.5.0 -Wall -Wextra -O3 -DNDEBUG
c Wed Feb 16 23:15:36 EST 2022 Linux fac-vanhoeve01 5.4.0-99-generic x86_64
c 
c --- [ limit ] --------------------------------------------------------------
c 
c setting time limit to 600 seconds real time (due to '-t 600')
c setting conflict limit to 1000000000 conflicts (due to '1000000000')
c 
c --- [ parsing input ] ------------------------------------------------------
c 
c reading DIMACS file from 'ddfwcnfs/le450_15c.col_15.cnf'
c opening file to read 'ddfwcnfs/le450_15c.col_15.cnf'
c found 'p cnf 6750 232590' header
c parsed 232590 clauses in 0.11 seconds process time
c closing file 'ddfwcnfs/le450_15c.col_15.cnf'
c after reading 3202602 bytes 3.1 MB
c 
c --- [ options ] ------------------------------------------------------------
c 
c all options are set to their default value
c 
c --- [ solving ] ------------------------------------------------------------
c 
c time measured in process time since initialization
c 
c  seconds  reductions  redundant  irredundant
c         MB    restarts       trail      variables
c          level   conflicts       glue        remaining
c 
c *  0.11 24  0 0   0    0    0  0% 0 232365 6525 97%
c {  0.11 24  0 0   0    0    0  0% 0 232365 6525 97%
c -  0.15 24 13 1   0  300  147 17% 11 232365 6525 97%
c }  0.18 24 13 1  21 1002  535 16% 11 232365 6525 97%
c [  0.18 24  0 1  21 1002  535  0% 0 232365 6525 97%
c O  0.18 24  7 1  21 1003  536 18% 7 232365 6525 97%
c -  0.27 31 14 2  21 1119  540 28% 10 232365 6525 97%
c -  0.38 32 17 3  22 2349 1104 22% 13 232365 6525 97%
c ]  0.41 32 17 3  22 3002 1616 22% 13 232365 6525 97%
c {  0.41 32 13 3  22 3002 1616 16% 11 232365 6525 97%
c F  0.41 32 13 3  22 3004 1618 16% 11 232365 6525 97%
c -  0.49 32 14 4  60 3988 1436 19% 12 232365 6525 97%
c #  0.71 31 14 4 106 6005 2488 20% 12 232365 6525 97%
c -  0.77 31 14 5 107 6038 1524 20% 12 232365 6525 97%
c }  0.80 31 14 5 122 7002 2035 21% 12 232365 6525 97%
c [  0.80 31 17 5 122 7002 2035 22% 13 232365 6525 97%
c -  0.91 31 18 6 123 8498 1886 21% 14 232365 6525 97%
c I  0.97 31 19 6 124 10007 2832 21% 15 232365 6525 97%
c s  1.06 40 24 6 125 10309 2912 23% 16 232365 6525 97%
c e  1.47 40 24 6 125 10309   56 23% 16 157980 4978 74%
c 
c  seconds  reductions   redundant   irredundant
c         MB    restarts        trail       variables
c          level    conflicts       glue         remaining
c 
c s  1.57 40 24 6 125 10309   55 23% 16 157980 4978 74%
c ^  1.59 40 24 6 125 10309   55 23% 16 157980 4978 74%
c -  1.89 39 27 7 126 11367  977 62% 18 157980 4978 74%
c -  2.44 44 30 8 127 14244 3097 62% 21 157980 4978 74%
c ]  2.77 44 31 8 127 15002 3805 62% 22 157980 4978 74%
c {  2.77 44 14 8 127 15002 3805 28% 12 157980 4978 74%
c B  2.78 44 15 8 128 15008 3811 28% 12 157980 4978 74%
c -  3.22 50 21 9 489 17480 3638 31% 15 157980 4978 74%
c W  3.87 50 23 9 865 21011 6537 32% 16 157980 4978 74%
c -  3.94 50 24 10 878 21075 3871 33% 16 157980 4978 74%
c -  4.45 50 24 11 1208 25030 3941 32% 17 157980 4978 74%
c F  4.65 50 23 11 1279 28012 5967 30% 16 157980 4978 74%
c -  4.75 50 22 12 1286 29345 4005 29% 16 157980 4978 74%
c s  5.02 50 22 12 1286 30262 4245 28% 15 157980 4978 74%
c w  5.11 50 22 12 1286 30262 4243 28% 15 157980 4978 74%
c s  5.32 50 22 12 1286 30262 3933 28% 15 157980 4978 74%
c ^  5.34 50 22 12 1286 30262 3933 28% 15 157980 4978 74%
c }  5.37 50 22 12 1286 31003 4267 27% 15 157980 4978 74%
c [  5.37 50 31 12 1286 31003 4267 62% 22 157980 4978 74%
c -  5.53 50 27 13 1287 34022 4275 41% 20 157980 4978 74%
c 
c  seconds  reductions     redundant   irredundant
c         MB     restarts         trail       variables
c          level      conflicts       glue         remaining
c 
c B  5.62 50 26 13 1289 36017 5639 35% 19 157980 4978 74%
c -  6.22 40 47 14 1291 39058 5680 41% 26 157980 4978 74%
c -  7.19 41 50 15 1293 44451 6729 47% 30 157980 4978 74%
c W  7.61 41 51 15 1293 45018 7268 48% 30 157980 4978 74%
c -  9.01 41 50 16 1294 50205 6927 51% 32 157980 4978 74%
c O  9.64 41 49 16 1295 55020 10687 51% 33 157980 4978 74%
c -  9.94 40 49 17 1297 56317 7105 51% 32 157980 4978 74%
c s 10.72 40 47 17 1299 60191 9998 52% 32 157980 4978 74%
c w 10.83 40 47 17 1299 60191 9998 52% 32 157980 4978 74%
c s 11.03 40 47 17 1299 60191 9940 52% 32 157980 4978 74%
c ^ 11.05 40 47 17 1299 60191 9940 52% 32 157980 4978 74%
c - 11.61 46 46 18 1301 62790 7657 53% 31 157980 4978 74%
c ] 11.66 46 46 18 1301 63004 7842 53% 31 157980 4978 74%
c { 11.66 46 22 18 1301 63004 7842 27% 15 157980 4978 74%
c B 11.90 46 21 18 1411 66022 10109 27% 15 157980 4978 74%
c - 12.26 46 22 19 1651 69622 7221 27% 15 157980 4978 74%
c - 12.99 46 21 20 1912 76814 6143 26% 15 157980 4978 74%
c W 13.56 46 21 20 1920 78024 6896 25% 15 157980 4978 74%
c - 14.74 50 23 21 2887 84367 7430 28% 16 157980 4978 74%
c # 15.76 50 24 21 3669 91028 12518 29% 17 157980 4978 74%
c 
c  seconds  reductions     redundant   irredundant
c         MB     restarts         trail       variables
c          level      conflicts       glue         remaining
c 
c - 15.92 50 25 22 3708 92280 8162 29% 17 157980 4978 74%
c s 16.93 50 25 22 4400 100097 13304 30% 17 157980 4978 74%
c w 17.06 50 25 22 4400 100097 13303 30% 17 157980 4978 74%
c s 17.29 50 25 22 4400 100097 13203 30% 17 157980 4978 74%
c ^ 17.31 50 25 22 4400 100097 13203 30% 17 157980 4978 74%
c - 17.38 50 25 23 4400 100551 7840 30% 17 157980 4978 74%
c B 17.80 50 24 23 4400 105029 10329 29% 16 157980 4978 74%
c - 18.99 51 26 24 5436 109180 8454 31% 17 157980 4978 74%
c - 19.51 51 25 25 5675 118169 7136 29% 17 157980 4978 74%
c W 20.45 51 25 25 5675 120030 8072 28% 17 157980 4978 74%
c } 20.78 51 24 25 5675 127005 11973 27% 16 157980 4978 74%
c [ 20.78 51 46 25 5675 127005 11973 53% 31 157980 4978 74%
c - 20.85 51 45 26 5675 127520 7504 52% 31 157980 4978 74%
c B 21.30 51 40 26 5680 136031 13514 44% 28 157980 4978 74%
c - 21.57 51 43 27 5681 137228 9610 44% 29 157980 4978 74%
c - 23.88 51 46 28 5683 147299 12114 48% 30 157980 4978 74%
c s 24.50 51 46 28 5683 149978 14439 49% 30 157980 4978 74%
c w 24.63 51 46 28 5683 149978 14439 49% 30 157980 4978 74%
c s 24.85 51 46 28 5683 149978 14406 49% 30 157980 4978 74%
c ^ 24.87 51 46 28 5683 149978 14406 49% 30 157980 4978 74%
c 
c  seconds  reductions       redundant   irredundant
c         MB     restarts           trail       variables
c          level      conflicts         glue         remaining
c 
c W 26.59 51 47 28 5684 153032 17289 50% 31 157980 4978 74%
c - 27.60 51 56 29 5684 157728 13743 50% 32 157980 4978 74%
c - 30.34 44 73 30 5685 168515 14789 52% 35 157980 4978 74%
c I 30.88 44 72 30 5687 171033 17059 52% 35 157980 4978 74%
c - 32.36 43 76 31 5691 179663 14135 52% 36 157980 4978 74%
c B 34.73 43 73 31 5698 190034 23705 53% 36 157980 4978 74%
c - 35.02 43 75 32 5698 191170 14778 53% 37 157980 4978 74%
c - 37.64 51 77 33 5701 203037 14891 54% 38 157980 4978 74%
c s 39.30 51 74 33 5706 209835 20697 55% 38 157980 4978 74%
c w 39.49 51 74 33 5706 209835 20696 55% 38 157980 4978 74%
c s 39.77 51 74 33 5706 209835 20690 55% 38 157980 4978 74%
c W 41.31 51 74 33 5706 210036 20858 55% 38 157980 4978 74%
c - 42.29 51 71 34 5708 215263 15028 55% 37 157980 4978 74%
c - 44.99 51 68 35 5714 227849 15614 56% 36 157980 4978 74%
c O 45.53 51 67 35 5714 231037 18412 56% 36 157980 4978 74%
c - 47.76 56 63 36 5715 240794 16388 56% 35 157980 4978 74%
c B 50.29 56 59 36 5716 253038 27180 57% 34 157980 4978 74%
c - 50.64 56 59 37 5716 254099 17182 57% 34 157980 4978 74%
c ] 50.87 56 59 37 5716 255006 17988 57% 34 157980 4978 74%
c { 50.87 56 24 37 5716 255006 17988 27% 16 157980 4978 74%
c 
c  seconds  reductions       redundant   irredundant
c         MB     restarts           trail       variables
c          level      conflicts         glue         remaining
c 
c - 53.22 56 25 38 7511 267763 15817 29% 17 157980 4978 74%
c F 54.04 56 24 38 7726 276039 20864 28% 16 157980 4978 74%
c - 54.32 56 23 39 7732 281786 12800 27% 16 157980 4978 74%
c - 55.05 56 21 40 7744 296169 13828 24% 15 157980 4978 74%
c B 55.24 56 21 40 7747 300040 16094 23% 14 157980 4978 74%
c - 55.97 56 20 41 8022 310911 13865 23% 14 157980 4978 74%
c W 58.62 56 19 41 8149 325042 21271 22% 14 157980 4978 74%
c - 58.94 56 20 42 8391 326013 12390 23% 14 157980 4978 74%
c - 60.51 56 20 43 9189 341474 13042 23% 14 157980 4978 74%
c # 60.94 56 19 43 9246 351044 18288 22% 14 157980 4978 74%
c - 61.30 56 19 44 9272 357296 13008 22% 14 157980 4978 74%
c - 62.14 56 18 45 9376 373477 12661 22% 14 157980 4978 74%
c B 62.36 56 18 45 9420 378050 15087 22% 13 157980 4978 74%
c - 63.34 56 18 46 9644 390021 15238 22% 13 157980 4978 74%
c W 66.66 56 18 46 10062 406051 27630 21% 13 157980 4978 74%
c - 66.78 56 18 47 10094 406921 17840 21% 13 157980 4978 74%
c - 67.99 57 19 48 10660 424180 18704 21% 13 157980 4978 74%
c F 68.73 57 19 48 10918 435052 27306 21% 13 157980 4978 74%
c - 69.08 57 19 49 11023 441800 18312 20% 13 157980 4978 74%
c - 70.26 57 18 50 11554 459779 14236 20% 13 157980 4978 74%
c 
c  seconds  reductions        redundant   irredundant
c         MB      restarts           trail       variables
c          level       conflicts         glue         remaining
c 
c B 70.52 57 18 50 11677 465055 16880 20% 13 157980 4978 74%
c - 71.44 57 17 51 12192 478118 14255 20% 13 157980 4978 74%
c W 75.90 57 18 51 13461 496058 25837 21% 13 157980 4978 74%
c - 75.99 57 18 52 13468 496817 15695 21% 13 157980 4978 74%
c } 76.62 57 18 52 13586 511009 23298 21% 13 157980 4978 74%
c [ 76.62 57 59 52 13586 511009 23298 57% 34 157980 4978 74%
c - 76.94 57 57 53 13586 515876 15289 55% 33 157980 4978 74%
c W 80.65 57 52 53 13586 528060 23161 49% 31 157980 4978 74%
c - 81.14 57 50 54 13586 535295 17662 46% 30 157980 4978 74%
c - 82.63 57 46 55 13596 555072 18223 40% 27 157980 4978 74%
c I 83.47 57 46 55 13600 561063 23374 41% 28 157980 4978 74%
c - 87.17 57 56 56 13603 575209 23412 44% 32 157980 4978 74%
c s 87.22 57 56 56 13603 575209 20434 44% 32 157980 4978 74%
c w 87.63 57 56 56 13603 575209 20390 44% 32 157980 4978 74%
c B 93.79 57 58 56 13615 595065 38128 48% 36 157980 4978 74%
c - 94.14 47 58 57 13615 595707 25566 48% 36 157980 4978 74%
c - 101.15 48 59 58 13617 616562 28037 50% 38 157980 4978 74%
c W 108.33 48 59 58 13623 630069 40472 52% 39 157980 4978 74%
c - 110.30 48 61 59 13627 637777 28063 52% 40 157980 4978 74%
c - 115.97 45 56 60 13635 659355 25933 54% 38 157980 4978 74%
c 
c  seconds   reductions        redundant   irredundant
c          MB      restarts           trail       variables
c           level       conflicts         glue         remaining
c 
c O 117.90 45 55 60 13639 666071 31813 55% 37 157980 4978 74%
c - 122.16 54 52 61 13646 681289 26164 55% 36 157980 4978 74%
c B 127.69 54 49 61 13648 703072 44534 56% 35 157980 4978 74%
c - 127.82 54 49 62 13648 703582 26772 55% 35 157980 4978 74%
c - 133.18 54 48 63 13649 726236 28424 56% 34 157980 4978 74%
c W 141.42 54 47 63 13650 741074 41986 57% 34 157980 4978 74%
c - 143.65 64 46 64 13650 749249 30412 57% 34 157980 4978 74%
c - 150.81 64 44 65 13650 772622 30589 57% 33 157980 4978 74%
c I 153.02 64 43 65 13650 780078 36668 57% 32 157980 4978 74%
c - 156.88 64 78 66 13650 796354 30755 57% 39 157980 4978 74%
c B 162.08 64 91 66 13659 820079 52478 57% 42 157980 4978 74%
c - 162.26 49 91 67 13659 820447 30997 57% 42 157980 4978 74%
c - 167.54 45 82 68 13670 844900 29397 57% 42 157980 4978 74%
c W 176.79 45 77 68 13679 861080 43311 57% 41 157980 4978 74%
c - 178.82 56 75 69 13680 869713 30609 57% 41 157980 4978 74%
c - 186.18 67 68 70 13686 894883 31729 58% 40 157980 4978 74%
c O 188.63 67 66 70 13690 903081 39299 59% 39 157980 4978 74%
c - 192.02 67 62 71 13696 920415 32178 58% 38 157980 4978 74%
c B 198.08 67 58 71 13710 946083 55419 58% 37 157980 4978 74%
c - 198.24 67 58 72 13710 946304 32302 58% 37 157980 4978 74%
c 
c  seconds   reductions        redundant   irredundant
c          MB      restarts           trail       variables
c           level       conflicts         glue         remaining
c 
c - 204.87 67 56 73 13713 972556 31524 59% 37 157980 4978 74%
c W 215.80 67 55 73 13713 990085 46846 59% 37 157980 4978 74%
c - 218.73 67 54 74 13713 999165 33824 59% 36 157980 4978 74%
c s 218.83 67 54 74 13713 999165 33446 59% 36 157980 4978 74%
c w 219.24 67 54 74 13713 999165 33440 59% 36 157980 4978 74%
c ] 226.69 67 52 74 13724 1023011 54533 60% 36 157980 4978 74%
c { 226.69 67 18 74 13724 1023011 54533 21% 13 157980 4978 74%
c - 227.35 67 18 75 14180 1026133 35802 21% 13 157980 4978 74%
c # 228.36 67 18 75 14873 1035089 41650 21% 13 157980 4978 74%
c - 229.56 67 18 76 15100 1053462 26127 21% 13 157980 4978 74%
c B 230.95 67 17 76 15300 1081090 40920 19% 13 157980 4978 74%
c - 231.04 67 17 77 15315 1081153 22194 19% 13 157980 4978 74%
c - 233.00 67 19 78 15846 1109200 28211 19% 13 157980 4978 74%
c W 241.17 67 20 78 16294 1128091 42833 19% 13 157980 4978 74%
c - 242.12 67 20 79 17105 1137606 30250 19% 13 157980 4978 74%
c - 243.83 67 18 80 17640 1166372 23295 19% 13 157980 4978 74%
c F 244.32 67 18 80 17849 1176094 28254 19% 13 157980 4978 74%
c - 245.85 67 18 81 19041 1195499 22634 20% 13 157980 4978 74%
c - 247.31 67 17 82 19598 1224984 21020 19% 13 157980 4978 74%
c B 247.32 67 17 82 19627 1225097 21088 19% 13 157980 4978 74%
c 
c  seconds   reductions         redundant   irredundant
c          MB      restarts            trail       variables
c           level        conflicts         glue         remaining
c 
c - 249.80 67 18 83 22752 1254829 21984 21% 14 157980 4978 74%
c W 258.76 67 18 83 23668 1275100 32137 21% 14 157980 4978 74%
c - 259.41 67 18 84 23925 1285033 21747 21% 14 157980 4978 74%
c - 260.98 67 17 85 24230 1315598 23411 20% 13 157980 4978 74%
c # 261.56 67 16 85 24456 1326103 28709 20% 13 157980 4978 74%
c - 263.84 67 18 86 26275 1346522 25228 21% 14 157980 4978 74%
c - 265.47 67 17 87 26655 1377806 23661 21% 13 157980 4978 74%
c B 265.49 67 17 87 26657 1378104 23841 21% 13 157980 4978 74%
c - 267.95 67 17 88 28335 1409450 23704 22% 14 157980 4978 74%
c W 276.78 67 17 88 28600 1431106 35016 22% 14 157980 4978 74%
c - 277.46 67 16 89 28798 1441453 23582 22% 13 157980 4978 74%
c - 279.40 67 16 90 29289 1473818 23152 22% 13 157980 4978 74%
c s 279.46 67 16 90 29289 1473818 20286 22% 13 157980 4978 74%
c w 279.79 67 16 90 29289 1473818 20277 22% 13 157980 4978 74%
c F 280.64 67 16 90 29594 1485109 25590 21% 13 157980 4978 74%
c - 281.93 67 15 91 29897 1506540 22210 21% 13 157980 4978 74%
c - 283.70 67 15 92 30589 1539621 22336 21% 13 157980 4978 74%
c B 283.74 67 15 92 30603 1540114 22651 21% 13 157980 4978 74%
c - 285.71 67 16 93 31951 1573062 26043 21% 13 157980 4978 74%
c W 295.48 67 15 93 32882 1596115 36807 21% 13 157980 4978 74%
c 
c  seconds   reductions         redundant   irredundant
c          MB      restarts            trail       variables
c           level        conflicts         glue         remaining
c 
c - 296.23 67 15 94 33198 1606863 23610 21% 13 157980 4978 74%
c - 297.97 67 15 95 34042 1641024 23911 19% 12 157980 4978 74%
c # 298.50 67 14 95 34162 1653117 30090 18% 12 157980 4978 74%
c - 299.47 67 14 96 34201 1675544 26375 17% 12 157980 4978 74%
c - 301.15 67 14 97 35410 1710423 27368 17% 11 157980 4978 74%
c B 301.19 67 14 97 35431 1711120 27702 17% 11 157980 4978 74%
c - 303.43 67 14 98 37374 1745662 28365 18% 12 157980 4978 74%
c W 314.18 67 15 98 39289 1770121 43068 18% 12 157980 4978 74%
c - 315.30 67 16 99 39954 1781260 29408 19% 13 157980 4978 74%
c - 317.55 67 16 100 41001 1817218 28407 19% 13 157980 4978 74%
c F 318.20 67 16 100 41098 1830122 35355 19% 12 157980 4978 74%
c - 319.48 67 15 101 41402 1853535 27746 18% 12 157980 4978 74%
c - 321.88 67 15 102 42200 1890213 26865 18% 12 157980 4978 74%
c B 321.93 67 15 102 42205 1891124 27260 18% 12 157980 4978 74%
c - 325.55 67 17 103 45152 1927252 31809 20% 13 157980 4978 74%
c W 336.66 67 16 103 45382 1953126 46503 19% 12 157980 4978 74%
c - 337.37 67 16 104 45420 1964648 30820 19% 12 157980 4978 74%
c - 339.85 67 15 105 45653 2002405 32068 18% 12 157980 4978 74%
c s 339.91 67 15 105 45653 2002405 24686 18% 12 157980 4978 74%
c w 340.27 67 15 105 45653 2002405 24678 18% 12 157980 4978 74%
c 
c  seconds    reductions         redundant   irredundant
c          MB       restarts            trail       variables
c           level         conflicts         glue         remaining
c 
c # 341.19 67 14 105 45766 2016128 31787 18% 11 157980 4978 74%
c - 342.61 67 14 106 46274 2040522 30760 17% 11 157980 4978 74%
c } 342.92 67 14 106 46449 2047012 34006 17% 11 157980 4978 74%
c [ 342.92 67 52 106 46449 2047012 34006 60% 36 157980 4978 74%
c - 345.16 67 43 107 46463 2078997 36200 47% 31 157980 4978 74%
c I 345.26 67 43 107 46464 2080131 36978 47% 31 157980 4978 74%
c - 355.18 85 60 108 46474 2117833 45507 50% 39 157980 4978 74%
c B 362.54 56 57 108 46484 2145132 69256 52% 39 157980 4978 74%
c - 366.24 54 55 109 46491 2157029 45762 53% 38 157980 4978 74%
c - 379.08 68 50 110 46501 2196585 48522 56% 36 157980 4978 74%
c W 394.43 68 48 110 46501 2211134 61431 57% 36 157980 4978 74%
c - 400.22 83 79 111 46502 2236498 51277 57% 41 157980 4978 74%
c - 413.01 83 78 112 46502 2276773 52956 58% 42 157980 4978 74%
c O 413.41 83 78 112 46502 2278135 54268 58% 42 157980 4978 74%
c - 416.55 83 68 113 46503 2317405 45117 50% 36 157980 4978 74%
c B 419.48 83 60 113 46503 2346137 66473 44% 33 157980 4978 74%
c - 421.70 83 75 114 46503 2358398 44821 45% 34 157980 4978 74%
c - 434.78 83 116 115 46503 2399749 53303 50% 38 157980 4978 74%
c W 451.32 83 126 115 46503 2415140 68026 52% 39 157980 4978 74%
c - 459.67 85 108 116 46512 2441460 53856 54% 38 157980 4978 74%
c 
c  seconds    reductions         redundant   irredundant
c          MB       restarts            trail       variables
c           level         conflicts         glue         remaining
c 
c - 474.64 85 85 117 46532 2483531 51501 57% 37 157980 4978 74%
c I 475.17 85 84 117 46532 2485142 52736 57% 37 157980 4978 74%
c - 485.90 85 87 118 46544 2525961 51556 58% 45 157980 4978 74%
c B 494.51 85 84 118 46556 2556144 79488 58% 46 157980 4978 74%
c - 497.63 103 82 119 46563 2568751 53587 59% 45 157980 4978 74%
c s 497.74 103 82 119 46563 2568751 49725 59% 45 157980 4978 74%
c w 498.26 103 82 119 46563 2568751 49719 59% 45 157980 4978 74%
c - 510.75 85 74 120 46566 2611901 55933 59% 44 157980 4978 74%
c W 526.73 85 73 120 46567 2628145 71337 60% 44 157980 4978 74%
c - 536.99 89 67 121 46581 2655411 55824 60% 43 157980 4978 74%
c - 553.04 89 58 122 46597 2699282 53552 61% 40 157980 4978 74%
c O 553.69 89 58 122 46597 2701146 55244 61% 40 157980 4978 74%
c - 562.06 89 51 123 46612 2743512 51348 57% 36 157980 4978 74%
c B 571.53 89 48 123 46627 2775147 79340 57% 35 157980 4978 74%
c - 575.35 89 50 124 46628 2788101 55967 58% 35 157980 4978 74%
c - 591.99 100 52 125 46630 2833048 57551 59% 38 157980 4978 74%
c ] 599.87 100 52 125 46630 2850147 72074 59% 38 157980 4978 74%
c ? 599.87 100 52 125 46630 2850147 72074 59% 38 157980 4978 74%
c 
c --- [ result ] -------------------------------------------------------------
c 
c UNKNOWN
c 
c --- [ run-time profiling ] -------------------------------------------------
c 
c process time taken by individual solving procedures
c (percentage relative to process time for solving)
c 
c       582.37   97.10% search
c       375.62   62.63% stable
c       115.44   19.25% walk
c        91.30   15.22% unstable
c        17.39    2.90% simplify
c         8.41    1.40% probe
c         2.52    0.42% vivify
c         1.24    0.21% ternary
c         1.07    0.18% elim
c         0.80    0.13% subsume
c         0.11    0.02% parse
c         0.00    0.00% lucky
c   =================================
c       599.76   99.98% solve
c 
c last line shows process time for solving
c (percentage relative to total process time)
c 
c --- [ statistics ] ---------------------------------------------------------
c 
c chronological:            460463        16.16 %  of conflicts
c conflicts:               2850147      4752.15    per second
c decisions:               4117998      6866.08    per second
c eliminated:                 1547        22.92 %  of all variables
c fixed:                       225         3.33 %  of all variables
c learned:                 2817993        98.87 %  per conflict
c learned_lits:          226091738       100.00 %  learned literals
c minimized:                     0         0.00 %  learned literals
c shrunken:               93630697        41.41 %  learned literals
c minishrunken:           18572792         8.21 %  learned literals
c propagations:          857828869         1.43 M  per second
c reduced:                 1995557        70.02 %  per conflict
c rephased:                     75     38001.96    interval
c restarts:                  46630        61.12    interval
c stabilizing:                   6        52.11 %  of conflicts
c subsumed:                 747468        12.16 %  of all clauses
c strengthened:              13422         0.22 %  of all clauses
c vivified:                    366         0.01 %  of all clauses
c walked:                       24    118756.12    interval
c weakened:                  96963         2.45    average size
c 
c seconds are measured in process time for solving
c 
c --- [ resources ] ----------------------------------------------------------
c 
c total process time since initialization:       599.87    seconds
c total real time since initialization:          600.02    seconds
c maximum resident set size of process:          103.28    MB
c 
c --- [ shutting down ] ------------------------------------------------------
c 
c exit 0
